p tw 32 35
1 2
2 13
3 4
4 5
4 11
5 6
6 7
6 11
7 8
8 9
9 10
10 28
11 12
12 14
13 24
14 15
15 16
15 20
16 17
17 18
17 20
18 19
19 22
20 21
21 22
22 23
23 25
24 27
25 26
27 28
28 29
29 30
30 31
31 32
32 3
